33D32945 STP File, STP Format Version 1.0

SECTION Comment
Name    "i080-241"
Creator "Cees Duin"
Remark  "Incidence graph"
END

SECTION Graph
Nodes 80
Edges 632
E 1 3 292
E 1 6 297
E 1 9 306
E 1 10 306
E 1 13 300
E 1 30 195
E 1 41 200
E 1 42 193
E 1 45 199
E 1 50 204
E 1 54 194
E 1 56 201
E 1 57 200
E 1 59 200
E 1 62 201
E 1 66 202
E 1 70 185
E 1 76 200
E 1 78 200
E 2 4 301
E 2 5 308
E 2 15 303
E 2 29 191
E 2 31 204
E 2 33 196
E 2 35 205
E 2 38 199
E 2 39 201
E 2 44 200
E 2 46 200
E 2 49 203
E 2 63 206
E 2 66 201
E 2 71 197
E 2 80 197
E 3 9 308
E 3 10 297
E 3 11 292
E 3 12 304
E 3 16 301
E 3 21 206
E 3 23 193
E 3 32 204
E 3 50 200
E 3 64 199
E 3 65 197
E 3 67 195
E 3 72 204
E 3 80 202
E 4 7 305
E 4 13 300
E 4 16 300
E 4 23 199
E 4 25 196
E 4 29 195
E 4 43 199
E 4 47 208
E 4 49 204
E 4 58 203
E 4 67 207
E 4 72 197
E 5 7 308
E 5 10 291
E 5 29 209
E 5 30 196
E 5 31 205
E 5 35 201
E 5 38 200
E 5 44 190
E 5 61 206
E 5 64 198
E 5 68 201
E 5 72 201
E 5 74 204
E 5 79 202
E 6 13 299
E 6 20 199
E 6 21 197
E 6 23 203
E 6 25 206
E 6 28 191
E 6 29 208
E 6 34 200
E 6 37 196
E 6 38 210
E 6 41 201
E 6 42 197
E 6 43 200
E 6 47 191
E 6 48 198
E 6 57 202
E 6 77 199
E 6 79 200
E 7 16 302
E 7 28 201
E 7 43 201
E 7 44 199
E 7 47 192
E 7 50 205
E 7 52 198
E 7 57 203
E 7 61 193
E 7 67 185
E 7 74 197
E 8 13 301
E 8 14 305
E 8 20 198
E 8 34 199
E 8 37 198
E 8 38 199
E 8 41 193
E 8 43 204
E 8 44 198
E 8 46 196
E 8 49 194
E 8 62 203
E 8 63 201
E 8 70 196
E 9 13 290
E 9 21 203
E 9 24 200
E 9 25 200
E 9 26 201
E 9 27 200
E 9 28 203
E 9 29 204
E 9 40 204
E 9 41 206
E 9 49 192
E 9 55 205
E 9 62 205
E 9 70 203
E 9 76 201
E 9 78 199
E 9 80 196
E 10 14 303
E 10 19 207
E 10 22 203
E 10 25 203
E 10 39 202
E 10 40 196
E 10 49 203
E 10 50 198
E 10 51 189
E 10 53 199
E 10 59 207
E 10 71 196
E 10 73 197
E 10 74 200
E 10 77 198
E 11 18 199
E 11 28 203
E 11 31 204
E 11 34 207
E 11 39 209
E 11 43 200
E 11 44 202
E 11 50 201
E 11 51 205
E 11 57 204
E 11 69 196
E 11 73 201
E 11 74 202
E 12 13 304
E 12 16 299
E 12 20 188
E 12 28 203
E 12 33 197
E 12 34 201
E 12 35 196
E 12 36 202
E 12 41 196
E 12 43 200
E 12 49 202
E 12 56 203
E 12 61 204
E 12 62 206
E 12 65 205
E 12 68 197
E 12 71 198
E 12 76 196
E 13 14 300
E 13 20 200
E 13 23 195
E 13 24 199
E 13 25 201
E 13 30 201
E 13 46 201
E 13 52 200
E 13 54 202
E 13 58 195
E 13 64 201
E 13 65 207
E 13 69 199
E 13 70 199
E 13 74 205
E 13 78 200
E 14 18 202
E 14 19 193
E 14 24 198
E 14 32 196
E 14 52 192
E 14 56 193
E 14 66 200
E 14 70 204
E 14 71 202
E 14 73 204
E 14 76 199
E 14 77 202
E 14 79 203
E 15 16 302
E 15 21 197
E 15 23 195
E 15 31 200
E 15 36 196
E 15 38 206
E 15 39 195
E 15 41 199
E 15 51 195
E 15 57 195
E 15 63 200
E 15 67 203
E 15 69 206
E 15 70 201
E 15 72 204
E 15 74 202
E 15 76 193
E 15 78 197
E 15 79 205
E 16 18 201
E 16 19 200
E 16 28 203
E 16 32 198
E 16 33 199
E 16 37 197
E 16 39 197
E 16 46 199
E 16 52 210
E 16 56 196
E 16 58 202
E 16 59 200
E 16 75 192
E 16 79 205
E 17 18 104
E 17 22 97
E 17 25 98
E 17 26 102
E 17 28 99
E 17 29 98
E 17 36 101
E 17 40 100
E 17 43 96
E 17 48 93
E 17 55 100
E 17 58 102
E 17 61 96
E 17 64 101
E 17 65 93
E 17 66 96
E 17 67 96
E 17 75 105
E 18 19 107
E 18 25 109
E 18 27 97
E 18 32 96
E 18 36 97
E 18 43 105
E 18 45 100
E 18 66 113
E 18 67 98
E 18 75 97
E 18 77 99
E 18 79 99
E 19 21 95
E 19 22 102
E 19 24 93
E 19 28 99
E 19 31 95
E 19 39 100
E 19 42 105
E 19 50 95
E 19 53 106
E 19 57 100
E 19 58 99
E 19 61 96
E 19 67 100
E 20 26 105
E 20 28 93
E 20 29 101
E 20 30 96
E 20 34 104
E 20 40 104
E 20 42 97
E 20 47 94
E 20 48 99
E 20 51 91
E 20 63 102
E 20 77 104
E 21 23 100
E 21 24 92
E 21 25 100
E 21 27 96
E 21 33 95
E 21 40 102
E 21 48 95
E 21 49 106
E 21 51 110
E 21 54 98
E 21 55 97
E 21 60 99
E 21 66 97
E 21 69 101
E 21 71 93
E 21 74 97
E 22 27 96
E 22 34 103
E 22 35 87
E 22 38 97
E 22 48 94
E 22 58 98
E 22 60 101
E 22 62 92
E 22 72 101
E 22 77 105
E 23 30 101
E 23 36 98
E 23 37 91
E 23 38 96
E 23 40 105
E 23 49 97
E 23 50 103
E 23 52 107
E 23 54 101
E 23 58 98
E 23 61 100
E 23 62 106
E 23 63 100
E 23 72 94
E 23 73 102
E 23 76 103
E 24 31 101
E 24 34 106
E 24 45 96
E 24 47 102
E 24 57 100
E 24 66 104
E 24 79 104
E 25 26 106
E 25 29 105
E 25 32 102
E 25 34 99
E 25 35 95
E 25 37 96
E 25 53 92
E 25 54 101
E 25 60 100
E 25 61 103
E 25 73 100
E 26 38 98
E 26 43 104
E 26 45 108
E 26 47 98
E 26 49 96
E 26 69 95
E 27 30 104
E 27 34 102
E 27 35 104
E 27 38 103
E 27 43 93
E 27 48 103
E 27 59 101
E 27 66 99
E 27 75 102
E 27 79 91
E 27 80 101
E 28 35 97
E 28 38 98
E 28 40 96
E 28 44 100
E 28 47 97
E 28 49 98
E 28 59 96
E 28 66 93
E 28 67 93
E 28 69 109
E 28 74 106
E 29 30 102
E 29 33 105
E 29 34 102
E 29 36 89
E 29 39 95
E 29 41 101
E 29 43 97
E 29 49 101
E 29 52 92
E 29 60 91
E 29 63 101
E 29 67 99
E 30 34 99
E 30 35 104
E 30 39 103
E 30 43 106
E 30 47 100
E 30 51 101
E 30 54 89
E 30 55 96
E 30 61 97
E 30 67 99
E 30 68 91
E 30 72 98
E 30 78 102
E 31 41 104
E 31 42 99
E 31 44 107
E 31 47 102
E 31 63 98
E 31 68 100
E 31 69 103
E 31 74 100
E 31 75 99
E 31 76 96
E 32 46 93
E 32 47 96
E 32 54 101
E 32 55 99
E 32 62 102
E 32 69 101
E 32 77 93
E 32 79 100
E 33 40 97
E 33 43 95
E 33 76 100
E 33 77 103
E 34 38 106
E 34 43 92
E 34 56 101
E 34 71 101
E 34 73 94
E 34 74 100
E 35 36 100
E 35 38 92
E 35 39 99
E 35 41 101
E 35 42 94
E 35 45 101
E 35 66 113
E 35 71 102
E 35 78 103
E 36 40 94
E 36 41 107
E 36 43 105
E 36 45 90
E 36 48 104
E 36 57 96
E 36 59 96
E 36 60 101
E 36 63 104
E 36 64 102
E 36 70 97
E 36 72 96
E 36 75 97
E 37 40 95
E 37 46 92
E 37 50 112
E 37 51 106
E 37 54 104
E 37 55 103
E 37 59 100
E 37 63 97
E 37 69 98
E 37 70 99
E 38 42 100
E 38 51 106
E 38 61 109
E 38 66 104
E 38 68 98
E 38 74 101
E 38 77 92
E 39 57 98
E 39 58 92
E 39 62 102
E 39 66 101
E 39 69 93
E 39 73 94
E 39 74 105
E 39 79 98
E 40 45 92
E 40 47 94
E 40 64 106
E 40 73 99
E 40 77 105
E 40 80 102
E 41 49 98
E 41 57 94
E 41 62 97
E 41 68 98
E 41 76 96
E 42 43 101
E 42 48 96
E 42 58 98
E 42 64 97
E 42 70 96
E 42 75 96
E 43 47 90
E 43 49 93
E 43 51 108
E 43 72 95
E 43 76 98
E 44 45 99
E 44 49 105
E 44 57 99
E 44 58 96
E 44 62 103
E 44 72 95
E 44 75 103
E 44 78 98
E 44 80 100
E 45 49 104
E 45 50 95
E 45 53 98
E 45 54 102
E 45 55 93
E 45 57 108
E 46 49 103
E 46 59 107
E 46 62 92
E 46 70 99
E 46 71 105
E 46 80 99
E 47 54 101
E 47 62 105
E 47 63 99
E 47 65 98
E 47 73 104
E 47 74 102
E 47 77 104
E 48 51 98
E 48 52 96
E 48 53 95
E 48 57 93
E 48 67 94
E 48 68 107
E 48 70 101
E 48 76 104
E 49 53 99
E 49 59 97
E 49 61 99
E 49 66 97
E 49 75 99
E 49 76 104
E 49 78 105
E 50 53 102
E 50 54 110
E 50 59 95
E 50 75 105
E 51 52 99
E 51 53 105
E 51 60 107
E 51 76 114
E 52 53 105
E 52 61 110
E 52 69 96
E 52 73 98
E 52 75 106
E 53 64 86
E 54 56 97
E 54 59 95
E 54 72 97
E 54 78 105
E 55 69 97
E 55 72 94
E 55 74 95
E 55 76 109
E 56 61 106
E 56 62 103
E 56 69 96
E 56 70 94
E 56 80 93
E 57 58 92
E 57 63 90
E 57 66 104
E 57 71 107
E 57 80 105
E 58 65 101
E 58 66 95
E 58 68 91
E 58 74 103
E 59 66 88
E 59 70 94
E 60 67 103
E 60 68 94
E 60 74 94
E 60 77 104
E 61 62 100
E 61 64 108
E 61 66 95
E 61 70 107
E 61 72 96
E 61 80 94
E 62 69 107
E 62 73 104
E 62 75 97
E 62 80 94
E 63 65 103
E 63 74 107
E 63 79 111
E 63 80 103
E 64 68 93
E 64 74 109
E 64 78 100
E 65 71 103
E 65 72 95
E 66 71 88
E 67 68 96
E 67 74 98
E 67 76 97
E 67 78 98
E 68 71 106
E 68 72 106
E 69 80 95
E 70 73 102
E 71 73 100
E 71 74 103
E 71 78 107
E 72 73 98
E 72 75 101
E 72 76 97
E 73 75 95
E 74 79 97
E 75 77 99
E 77 80 92
E 79 80 93
END

SECTION Terminals
Terminals 16
T 1
T 2
T 3
T 4
T 5
T 6
T 7
T 8
T 9
T 10
T 11
T 12
T 13
T 14
T 15
T 16
END

EOF
